benchmarks_CP/INST_36x36/55/inst36x36_55_93.dzn
S=6;
start=[|
2,	27,	16,	34,	-1,	-1,	-1,	-1,	25,	11,	-1,	-1,	18,	-1,	-1,	24,	-1,	33,	-1,	14,	15,	3,	-1,	-1,	10,	12,	-1,	-1,	-1,	29,	36,	23,	-1,	-1,	31,	-1|
-1,	-1,	11,	-1,	33,	31,	-1,	10,	12,	-1,	-1,	8,	-1,	20,	-1,	22,	-1,	-1,	27,	34,	13,	36,	21,	-1,	-1,	-1,	-1,	-1,	24,	-1,	16,	-1,	17,	35,	29,	-1|
-1,	20,	26,	-1,	19,	9,	-1,	23,	-1,	-1,	21,	33,	35,	-1,	4,	6,	10,	36,	32,	-1,	16,	25,	-1,	12,	-1,	-1,	18,	-1,	-1,	5,	-1,	14,	22,	-1,	1,	-1|
30,	17,	-1,	5,	13,	-1,	-1,	-1,	24,	27,	26,	-1,	-1,	12,	-1,	-1,	-1,	15,	-1,	31,	2,	-1,	11,	-1,	-1,	14,	-1,	36,	20,	1,	-1,	3,	-1,	18,	19,	-1|
-1,	-1,	-1,	-1,	36,	28,	35,	15,	20,	-1,	34,	-1,	27,	-1,	1,	-1,	-1,	-1,	-1,	-1,	-1,	-1,	-1,	-1,	-1,	-1,	33,	4,	-1,	25,	-1,	-1,	-1,	32,	-1,	12|
3,	-1,	-1,	-1,	-1,	10,	18,	36,	31,	-1,	-1,	29,	-1,	-1,	-1,	17,	30,	-1,	1,	33,	20,	7,	4,	26,	-1,	16,	-1,	-1,	11,	-1,	-1,	27,	-1,	-1,	-1,	-1|
34,	11,	-1,	-1,	-1,	-1,	-1,	22,	4,	-1,	12,	-1,	15,	-1,	-1,	21,	9,	-1,	-1,	-1,	6,	20,	-1,	28,	-1,	-1,	31,	5,	-1,	-1,	25,	-1,	29,	14,	36,	32|
17,	-1,	14,	-1,	-1,	-1,	-1,	25,	-1,	32,	29,	6,	-1,	-1,	-1,	36,	34,	20,	11,	-1,	1,	-1,	27,	21,	-1,	18,	19,	22,	-1,	16,	-1,	10,	-1,	30,	5,	-1|
36,	30,	32,	35,	26,	18,	-1,	28,	34,	15,	5,	-1,	12,	-1,	17,	-1,	-1,	10,	-1,	-1,	31,	9,	-1,	-1,	3,	21,	20,	-1,	4,	13,	7,	-1,	1,	-1,	-1,	19|
-1,	-1,	27,	-1,	21,	25,	-1,	30,	-1,	-1,	24,	31,	7,	13,	-1,	-1,	-1,	4,	3,	17,	33,	-1,	-1,	-1,	14,	2,	-1,	12,	-1,	-1,	-1,	-1,	-1,	34,	11,	26|
-1,	6,	-1,	19,	-1,	16,	27,	-1,	-1,	20,	18,	2,	14,	3,	23,	-1,	-1,	30,	36,	4,	-1,	12,	-1,	32,	-1,	-1,	-1,	25,	-1,	-1,	17,	-1,	31,	28,	-1,	33|
4,	31,	9,	15,	20,	-1,	17,	14,	21,	33,	13,	-1,	1,	28,	11,	32,	35,	-1,	25,	-1,	19,	-1,	29,	5,	36,	-1,	10,	7,	6,	-1,	3,	24,	12,	-1,	2,	-1|
26,	36,	-1,	-1,	-1,	33,	-1,	13,	14,	-1,	8,	21,	31,	23,	10,	34,	-1,	-1,	20,	-1,	4,	11,	6,	2,	28,	1,	-1,	35,	-1,	-1,	27,	-1,	32,	16,	-1,	-1|
11,	-1,	24,	-1,	23,	32,	19,	16,	-1,	26,	4,	18,	20,	8,	13,	-1,	36,	21,	5,	25,	-1,	28,	35,	-1,	31,	-1,	27,	15,	33,	30,	1,	17,	6,	7,	34,	29|
13,	-1,	-1,	-1,	34,	3,	22,	-1,	-1,	36,	-1,	25,	6,	-1,	9,	-1,	27,	2,	16,	-1,	29,	15,	31,	18,	-1,	20,	-1,	-1,	14,	-1,	26,	28,	21,	-1,	-1,	-1|
29,	-1,	35,	17,	-1,	-1,	-1,	-1,	32,	-1,	31,	-1,	26,	15,	-1,	-1,	-1,	28,	-1,	36,	14,	21,	-1,	27,	-1,	-1,	23,	-1,	25,	19,	-1,	-1,	5,	-1,	-1,	11|
-1,	-1,	-1,	14,	9,	15,	-1,	27,	-1,	-1,	-1,	12,	25,	29,	32,	-1,	16,	35,	13,	7,	-1,	24,	17,	33,	-1,	10,	-1,	-1,	5,	26,	-1,	-1,	-1,	20,	8,	-1|
20,	-1,	21,	-1,	7,	-1,	-1,	-1,	-1,	-1,	-1,	35,	-1,	-1,	22,	30,	-1,	-1,	-1,	-1,	12,	-1,	-1,	-1,	2,	32,	16,	-1,	18,	-1,	-1,	25,	-1,	24,	14,	15|
-1,	-1,	-1,	18,	-1,	29,	26,	-1,	36,	-1,	-1,	14,	-1,	6,	-1,	-1,	23,	27,	22,	24,	35,	33,	3,	-1,	1,	15,	-1,	-1,	9,	11,	-1,	5,	34,	31,	-1,	-1|
-1,	-1,	23,	1,	-1,	-1,	34,	-1,	-1,	25,	16,	28,	-1,	5,	-1,	-1,	-1,	-1,	-1,	-1,	18,	14,	9,	-1,	32,	17,	22,	33,	2,	6,	-1,	36,	-1,	19,	27,	-1|
-1,	-1,	10,	22,	-1,	-1,	23,	-1,	-1,	8,	27,	20,	-1,	34,	18,	3,	-1,	19,	4,	13,	-1,	6,	12,	36,	21,	-1,	-1,	28,	16,	31,	9,	-1,	-1,	29,	-1,	-1|
8,	-1,	34,	3,	-1,	36,	12,	-1,	-1,	-1,	9,	17,	16,	-1,	-1,	25,	31,	7,	30,	-1,	-1,	2,	10,	-1,	-1,	-1,	-1,	-1,	-1,	18,	15,	-1,	28,	-1,	-1,	-1|
-1,	33,	-1,	-1,	17,	14,	24,	21,	-1,	-1,	2,	-1,	-1,	-1,	8,	-1,	11,	9,	29,	28,	25,	-1,	-1,	7,	-1,	35,	-1,	26,	-1,	-1,	30,	13,	23,	1,	-1,	18|
9,	24,	19,	-1,	27,	21,	-1,	-1,	-1,	29,	-1,	-1,	22,	-1,	28,	15,	14,	-1,	17,	20,	-1,	34,	-1,	11,	7,	8,	5,	10,	-1,	-1,	6,	26,	2,	4,	25,	16|
23,	-1,	-1,	12,	-1,	34,	31,	8,	22,	21,	25,	-1,	3,	-1,	20,	1,	-1,	5,	-1,	-1,	36,	27,	2,	13,	-1,	33,	-1,	30,	-1,	-1,	-1,	-1,	11,	-1,	-1,	-1|
-1,	1,	20,	-1,	-1,	35,	10,	-1,	-1,	12,	-1,	-1,	9,	4,	-1,	19,	-1,	-1,	7,	-1,	-1,	-1,	-1,	-1,	16,	-1,	8,	23,	-1,	28,	29,	-1,	-1,	25,	22,	-1|
16,	-1,	-1,	-1,	-1,	-1,	-1,	-1,	29,	5,	28,	1,	-1,	26,	36,	11,	12,	25,	34,	23,	-1,	4,	15,	-1,	-1,	6,	32,	-1,	-1,	-1,	-1,	30,	-1,	2,	-1,	24|
19,	21,	-1,	-1,	30,	-1,	2,	18,	35,	24,	-1,	-1,	29,	-1,	6,	10,	-1,	-1,	12,	-1,	9,	1,	8,	14,	5,	26,	4,	20,	-1,	-1,	23,	34,	-1,	-1,	-1,	-1|
10,	32,	-1,	27,	31,	-1,	6,	34,	-1,	-1,	23,	9,	-1,	-1,	-1,	8,	7,	14,	21,	29,	28,	17,	20,	-1,	-1,	36,	-1,	-1,	35,	-1,	-1,	-1,	-1,	12,	-1,	3|
-1,	7,	-1,	6,	-1,	24,	-1,	-1,	-1,	-1,	-1,	15,	2,	-1,	27,	23,	28,	34,	33,	35,	-1,	31,	-1,	19,	-1,	25,	-1,	-1,	-1,	21,	20,	-1,	-1,	10,	-1,	-1|
18,	34,	-1,	-1,	-1,	-1,	21,	-1,	-1,	10,	6,	-1,	8,	30,	7,	-1,	-1,	26,	-1,	12,	11,	32,	25,	15,	-1,	29,	36,	-1,	-1,	17,	-1,	16,	27,	-1,	9,	13|
24,	-1,	17,	-1,	10,	-1,	4,	5,	8,	-1,	7,	-1,	19,	1,	14,	-1,	-1,	6,	31,	3,	21,	18,	33,	22,	23,	34,	12,	2,	13,	-1,	-1,	-1,	-1,	36,	32,	30|
35,	-1,	7,	11,	6,	-1,	25,	29,	3,	31,	15,	30,	-1,	-1,	33,	-1,	-1,	-1,	9,	19,	-1,	10,	-1,	24,	-1,	-1,	14,	-1,	21,	-1,	-1,	-1,	26,	-1,	23,	-1|
-1,	9,	29,	8,	-1,	-1,	-1,	19,	1,	35,	22,	-1,	10,	-1,	3,	12,	-1,	-1,	2,	-1,	-1,	-1,	36,	-1,	-1,	5,	-1,	16,	-1,	-1,	-1,	-1,	24,	15,	-1,	4|
27,	13,	22,	36,	-1,	-1,	28,	-1,	-1,	17,	-1,	24,	-1,	16,	-1,	-1,	32,	23,	35,	1,	-1,	29,	7,	30,	-1,	4,	-1,	31,	-1,	10,	-1,	12,	-1,	5,	6,	2|
-1,	-1,	33,	-1,	-1,	30,	14,	-1,	16,	18,	-1,	13,	-1,	24,	-1,	27,	-1,	17,	-1,	6,	34,	23,	5,	4,	-1,	-1,	1,	9,	26,	-1,	-1,	-1,	-1,	3,	10,	21|];
